
Gurobi 10.0.1 (mac64[arm]) logging started Sun Apr  7 14:30:39 2024

Set parameter LogFile to value "/Users/deniserings/Documents/zib/s-bahn-data/scripts/DeniseMA/processed/BBUP_W/Branching/BBUP_W_slack_subMBP202404071201.log"
Gurobi Optimizer version 10.0.1 build v10.0.1rc0 (mac64[arm])

CPU model: Apple M2
Thread count: 8 physical cores, 8 logical processors, using up to 8 threads

Optimize a model with 12174 rows, 5181 columns and 44779 nonzeros
Model fingerprint: 0x74095e07
Variable types: 2316 continuous, 2865 integer (59 binary)
Coefficient statistics:
  Matrix range     [1e+00, 2e+02]
  Objective range  [1e+00, 4e+02]
  Bounds range     [1e+00, 2e+02]
  RHS range        [1e+00, 5e+02]

Loaded user MIP start with objective 15083

Presolve removed 5822 rows and 1924 columns
Presolve time: 0.10s
Presolved: 6352 rows, 3257 columns, 24146 nonzeros
Variable types: 1050 continuous, 2207 integer (2207 binary)

Root relaxation: objective 1.269604e+04, 2094 iterations, 0.01 seconds (0.01 work units)

    Nodes    |    Current Node    |     Objective Bounds      |     Work
 Expl Unexpl |  Obj  Depth IntInf | Incumbent    BestBd   Gap | It/Node Time

     0     0 12696.0447    0  122 15083.0000 12696.0447  15.8%     -    0s
     0     0 12740.3743    0  391 15083.0000 12740.3743  15.5%     -    0s
     0     0 12740.3743    0  401 15083.0000 12740.3743  15.5%     -    0s
     0     0 12751.0356    0  451 15083.0000 12751.0356  15.5%     -    0s
     0     0 12751.0356    0  438 15083.0000 12751.0356  15.5%     -    0s
     0     0 12752.2723    0  430 15083.0000 12752.2723  15.5%     -    0s
     0     0 12754.2488    0  387 15083.0000 12754.2488  15.4%     -    0s
     0     0 12754.2488    0  374 15083.0000 12754.2488  15.4%     -    0s
     0     0 12755.2568    0  402 15083.0000 12755.2568  15.4%     -    0s
     0     0 12755.2568    0  405 15083.0000 12755.2568  15.4%     -    0s
     0     0 12755.2568    0  445 15083.0000 12755.2568  15.4%     -    0s
     0     0 12755.2568    0  403 15083.0000 12755.2568  15.4%     -    0s
     0     0 12755.2568    0  164 15083.0000 12755.2568  15.4%     -    0s
     0     0 12755.2568    0  227 15083.0000 12755.2568  15.4%     -    0s
H    0     0                    15082.999965 12755.2568  15.4%     -    1s
     0     0 12755.2568    0  118 15083.0000 12755.2568  15.4%     -    1s
     0     0 12755.2568    0  157 15083.0000 12755.2568  15.4%     -    1s
     0     0 12755.7925    0  133 15083.0000 12755.7925  15.4%     -    1s
     0     0 12755.7925    0  132 15083.0000 12755.7925  15.4%     -    1s
     0     0 12761.3089    0  131 15083.0000 12761.3089  15.4%     -    1s
     0     0 12761.3089    0  212 15083.0000 12761.3089  15.4%     -    1s
     0     0 12761.3089    0  200 15083.0000 12761.3089  15.4%     -    1s
     0     0 12761.3089    0  207 15083.0000 12761.3089  15.4%     -    1s
H    0     0                    15082.000000 12761.3089  15.4%     -    1s
     0     0 12761.3089    0  278 15082.0000 12761.3089  15.4%     -    1s
     0     0 12761.3089    0  235 15082.0000 12761.3089  15.4%     -    1s
     0     0 12761.3089    0  312 15082.0000 12761.3089  15.4%     -    1s
     0     0 12761.3089    0  333 15082.0000 12761.3089  15.4%     -    1s
H    0     0                    15074.000000 12761.3089  15.3%     -    1s
     0     0 12761.3089    0  108 15074.0000 12761.3089  15.3%     -    1s
     0     0 12761.3089    0  162 15074.0000 12761.3089  15.3%     -    1s
H    0     0                    15073.999961 12761.3089  15.3%     -    2s
     0     0 12761.9380    0  130 15074.0000 12761.9380  15.3%     -    2s
     0     0 12761.9380    0  206 15074.0000 12761.9380  15.3%     -    2s
     0     0 12761.9380    0  111 15074.0000 12761.9380  15.3%     -    2s
     0     0 12761.9380    0  109 15074.0000 12761.9380  15.3%     -    2s
     0     2 12761.9380    0   94 15074.0000 12761.9380  15.3%     -    2s
H  147   124                    15073.999910 12768.0000  15.3%  92.4    2s
H  233   211                    15070.000000 12768.0000  15.3%  71.2    2s
H  454   398                    15067.000000 12768.0000  15.3%  54.1    2s
H  465   398                    15065.000000 12768.0000  15.2%  53.9    2s
H  525   558                    15062.000000 12768.0000  15.2%  50.9    3s
H 1090   854                    15057.000000 12768.0000  15.2%  37.3    3s
H 1101   854                    15053.000000 12768.0000  15.2%  37.6    3s
  1631  1261 12865.0000   25  295 15053.0000 12774.2617  15.1%  32.7    5s
H 1639  1202                    15052.999970 12778.0000  15.1%  32.6    6s
H 1673  1171                    15052.999629 12778.0000  15.1%  44.6    6s
H 1750  1165                    15052.999566 12778.0000  15.1%  44.5    6s
H 1758  1108                    15052.998530 12778.0000  15.1%  44.4    6s
H 1990  1147                    15052.000000 12778.0000  15.1%  43.0    7s
H 1995  1097                    15050.000000 12778.0000  15.1%  43.3    7s
H 2055  1082                    14971.000000 12778.0000  14.6%  43.6    7s
H 2168  1223                    14963.000000 12778.0000  14.6%  43.3    8s
H 3214  1406                    14960.000000 12778.0000  14.6%  39.3    9s
H 3797  1590                    14959.999949 12778.0000  14.6%  38.2    9s
H 3833  1580                    14955.000000 12778.0000  14.6%  38.6    9s
  3866  1637 12792.9133   20  221 14955.0000 12778.0000  14.6%  38.6   10s
H 5592  2765                    14954.999909 12778.0000  14.6%  35.9   11s
H 6813  3734                    14954.999633 12778.0000  14.6%  33.6   12s
H 7230  4203                    14948.000000 12778.0000  14.5%  33.5   12s
H 8942  5331                    14940.000000 12778.0000  14.5%  32.0   13s
H 9168  5331                    14938.000000 12778.0000  14.5%  32.1   13s
 10182  6200 12887.0000   29  208 14938.0000 12778.0000  14.5%  33.5   15s
H10969  6696                    14937.999980 12778.0000  14.5%  33.6   15s
H11006  6696                    14937.999908 12778.0000  14.5%  33.7   15s
 15056 10534 13257.7219   38  215 14937.9999 12778.0000  14.5%  34.0   20s
 21628 13995 12878.0000   32  233 14937.9999 12778.0000  14.5%  35.0   25s
 25470 15524 infeasible   55      14937.9999 12778.0000  14.5%  36.4   30s
H25471 15524                    14937.999615 12778.0000  14.5%  36.4   30s
H27767 16643                    14937.999559 12778.0000  14.5%  36.9   32s
 29599 17525 13598.0000   55  132 14937.9996 12778.0000  14.5%  37.8   92s
 29609 17532 14478.0000   85  158 14937.9996 13172.5866  11.8%  37.8   95s
 29626 17545 13593.6114   66  120 14937.9996 13172.5866  11.8%  38.3  100s
 29633 17549 13573.8808   43  287 14937.9996 13172.5874  11.8%  38.3  105s
 29647 17559 13174.0869   63  275 14937.9996 13174.0869  11.8%  38.3  110s
 29657 17565 14757.7818   58  252 14937.9996 13174.6347  11.8%  38.3  115s
 29908 17733 13196.0000   55  264 14937.9996 13176.0000  11.8%  39.7  120s
 30220 17918 13176.0000   73  225 14937.9996 13176.0000  11.8%  39.8  265s

Cutting planes:
  Learned: 4
  Gomory: 67
  Cover: 326
  Implied bound: 43
  Projected implied bound: 16
  Clique: 46
  MIR: 49
  StrongCG: 64
  Flow cover: 187
  GUB cover: 5
  Inf proof: 6
  Zero half: 4
  Network: 13
  RLT: 4
  Relax-and-lift: 19

Explored 30309 nodes (1232978 simplex iterations) in 265.86 seconds (85.34 work units)
Thread count was 8 (of 8 available processors)

Solution count 10: 14938 14938 14938 ... 14955

Solve interrupted
Best objective 1.493799955863e+04, best bound 1.317600000000e+04, gap 11.7954%

User-callback calls 92041, time in user-callback 0.17 sec

Statistics for modelBBUP_W:
  Linear constraint matrix    : 12174 Constrs, 5181 Vars, 44779 NZs
  Variable types              : 2316 Continuous,
2865 Integer (59 Binary)
  Matrix coefficient range    : [ 1, 200 ]
  Objective coefficient range : [ 1, 384 ]
  Variable bound range        : [ 1, 199 ]
  RHS coefficient range       : [ 1, 549 ]

Gurobi 10.0.1 (mac64[arm]) logging started Sun Apr  7 14:35:06 2024

Set parameter LogFile to value "/Users/deniserings/Documents/zib/s-bahn-data/scripts/DeniseMA/processed/BBUP_W/Branching/BBUP_W_slack_subMBP202404071201.log"
Gurobi Optimizer version 10.0.1 build v10.0.1rc0 (mac64[arm])

CPU model: Apple M2
Thread count: 8 physical cores, 8 logical processors, using up to 8 threads

Optimize a model with 12168 rows, 5181 columns and 44773 nonzeros
Model fingerprint: 0x8e9f3c46
Variable types: 2316 continuous, 2865 integer (59 binary)
Coefficient statistics:
  Matrix range     [1e+00, 2e+02]
  Objective range  [1e+00, 4e+02]
  Bounds range     [1e+00, 2e+02]
  RHS range        [1e+00, 5e+02]

Loaded user MIP start with objective 15083

Presolve removed 5656 rows and 1826 columns
Presolve time: 0.19s
Presolved: 6512 rows, 3355 columns, 24911 nonzeros
Variable types: 1090 continuous, 2265 integer (2265 binary)

Root relaxation: objective 1.269604e+04, 2423 iterations, 0.02 seconds (0.01 work units)

    Nodes    |    Current Node    |     Objective Bounds      |     Work
 Expl Unexpl |  Obj  Depth IntInf | Incumbent    BestBd   Gap | It/Node Time

     0     0 12696.0447    0  114 15083.0000 12696.0447  15.8%     -    0s
     0     0 12740.3743    0  363 15083.0000 12740.3743  15.5%     -    0s
     0     0 12742.0000    0  346 15083.0000 12742.0000  15.5%     -    0s
     0     0 12751.0356    0  467 15083.0000 12751.0356  15.5%     -    0s
     0     0 12768.0000    0  479 15083.0000 12768.0000  15.3%     -    0s
H    0     0                    15059.000000 12768.0000  15.2%     -    0s
     0     0 12768.0000    0  565 15059.0000 12768.0000  15.2%     -    0s
H    0     0                    15043.000000 12768.0000  15.1%     -    0s
     0     0 12768.0000    0  501 15043.0000 12768.0000  15.1%     -    0s
     0     0 12768.0000    0  472 15043.0000 12768.0000  15.1%     -    0s
     0     0 12768.0000    0  381 15043.0000 12768.0000  15.1%     -    0s
     0     0 12768.0000    0  132 15043.0000 12768.0000  15.1%     -    0s
     0     0 12768.0000    0  280 15043.0000 12768.0000  15.1%     -    1s
     0     0 12768.0000    0  131 15043.0000 12768.0000  15.1%     -    1s
     0     0 12768.0000    0  207 15043.0000 12768.0000  15.1%     -    1s
     0     0 12768.0000    0  163 15043.0000 12768.0000  15.1%     -    1s
     0     0 12768.0000    0  157 15043.0000 12768.0000  15.1%     -    1s
H    0     0                    15042.000000 12768.0000  15.1%     -    1s
     0     0 12768.0000    0   99 15042.0000 12768.0000  15.1%     -    1s
     0     0 12768.0000    0  297 15042.0000 12768.0000  15.1%     -    1s
H    0     0                    15014.000000 12768.0000  15.0%     -    1s
H    0     0                    15006.000000 12768.0000  14.9%     -    2s
     0     0 12768.0000    0  284 15006.0000 12768.0000  14.9%     -    2s
     0     0 12768.0000    0  321 15006.0000 12768.0000  14.9%     -    2s
     0     0 12768.0000    0  292 15006.0000 12768.0000  14.9%     -    2s
     0     0 12768.0000    0  128 15006.0000 12768.0000  14.9%     -    2s
H    0     0                    15002.000000 12768.0000  14.9%     -    2s
     0     0 12768.0000    0  179 15002.0000 12768.0000  14.9%     -    2s
     0     0 12768.0000    0  106 15002.0000 12768.0000  14.9%     -    2s
     0     0 12768.0000    0  169 15002.0000 12768.0000  14.9%     -    2s
     0     0 12768.0000    0  125 15002.0000 12768.0000  14.9%     -    2s
     0     0 12768.0000    0  122 15002.0000 12768.0000  14.9%     -    2s
H    0     0                    15001.000000 12768.0000  14.9%     -    2s
     0     2 12768.0000    0  121 15001.0000 12768.0000  14.9%     -    2s
H  120   178                    15000.999949 12768.0000  14.9%   130    3s
H  180   276                    14995.000000 12768.0000  14.9%  98.2    3s
H  296   392                    14984.000000 12768.0000  14.8%  71.3    3s
H  357   392                    14979.000000 12768.0000  14.8%  66.0    3s
H  433   611                    14969.000000 12768.0000  14.7%  60.4    3s
H  795   904                    14967.000000 12768.0000  14.7%  42.9    4s
  1688  1358 12768.0000   11  279 14967.0000 12768.0000  14.7%  36.1    5s
H 1705  1300                    14966.999960 12778.0000  14.6%  35.8    7s
H 1705  1234                    14966.999916 12778.0000  14.6%  35.8    7s
  1729  1251 12778.0000   38  127 14966.9999 12778.0000  14.6%  48.6   10s
H 1956  1343                    14959.000000 12778.0000  14.6%  64.1   11s
H 2091  1361                    14955.000000 12778.0000  14.6%  63.1   12s
H 2586  1499                    14938.000000 12778.0000  14.5%  65.7   13s
  3493  1847 12798.0000   45  287 14938.0000 12778.0000  14.5%  64.9   15s
H 4109  2419                    14937.999971 12778.0000  14.5%  63.5   16s
H 4387  2275                    14937.999948 12778.0000  14.5%  61.1   16s
  6488  3781 12778.3242   40  257 14937.9999 12778.0000  14.5%  60.4   20s
H 7100  3779                    14933.000000 12778.0000  14.4%  61.0   21s
  7596  5140 13985.0000   79  145 14933.0000 12778.0000  14.4%  61.4   76s
 11664  6902 12778.0000   45  203 14933.0000 12778.0000  14.4%  57.5   80s
 13633  8290 12778.0000   55  191 14933.0000 12778.0000  14.4%  61.2   85s
 16982 10269 14209.0000   59  107 14933.0000 12778.0000  14.4%  61.8   91s
H17364 10269                    14932.999994 12778.0000  14.4%  62.4   91s
 19534 11587 infeasible   42      14933.0000 12778.0000  14.4%  62.1   95s
H20109 11862                    14932.999906 12778.0000  14.4%  63.6   97s
H20373 11862                    14932.998070 12778.0000  14.4%  64.0   97s
 20580 12257 infeasible   43      14932.9981 12778.0000  14.4%  64.4  100s
 22715 13344 infeasible   65      14932.9981 12778.0000  14.4%  66.2  108s
 23182 13961 13010.1904   39  236 14932.9981 12778.0000  14.4%  66.7  114s
 24198 14683 13029.6452   41  302 14932.9981 12778.0000  14.4%  67.9  119s
 25385 15013 13464.0000   38  285 14932.9981 12778.0000  14.4%  69.7  121s
 26859 16535 13125.0266   61  236 14932.9981 12778.0000  14.4%  71.5  127s
 28438 16995 infeasible   72      14932.9981 12778.0000  14.4%  71.5  131s
 29267 17444     cutoff   82      14932.9981 12778.0000  14.4%  72.5  135s
 29972 17445 13754.0000   52  157 14932.9981 12778.0000  14.4%  73.5  151s
 29983 17452 14889.0000   67  280 14932.9981 12778.0000  14.4%  73.5  155s
 29990 17457 13305.0000   58  219 14932.9981 12788.0000  14.4%  73.4  160s
 29999 17468 12802.0000   36  188 14932.9981 12802.0000  14.3%  74.5  165s
 30968 17995 13265.3942   68  196 14932.9981 12802.0000  14.3%  75.6  170s
 32145 18341 14541.6338   86   72 14932.9981 12802.0000  14.3%  76.4  175s
 33503 18923 12840.6413   45  252 14932.9981 12802.0000  14.3%  77.2  180s

Cutting planes:
  Learned: 4
  Gomory: 136
  Cover: 512
  Implied bound: 48
  Projected implied bound: 8
  Clique: 66
  MIR: 96
  StrongCG: 127
  Flow cover: 588
  GUB cover: 8
  Inf proof: 7
  Zero half: 15
  Network: 22
  RLT: 15
  Relax-and-lift: 35

Explored 33802 nodes (2648776 simplex iterations) in 180.69 seconds (148.42 work units)
Thread count was 8 (of 8 available processors)

Solution count 10: 14933 14933 14933 ... 14967

Solve interrupted
Best objective 1.493299807033e+04, best bound 1.280200000000e+04, gap 14.2704%

User-callback calls 112288, time in user-callback 0.49 sec

Statistics for modelBBUP_W:
  Linear constraint matrix    : 12168 Constrs, 5181 Vars, 44773 NZs
  Variable types              : 2316 Continuous,
2865 Integer (59 Binary)
  Matrix coefficient range    : [ 1, 200 ]
  Objective coefficient range : [ 1, 384 ]
  Variable bound range        : [ 1, 199 ]
  RHS coefficient range       : [ 1, 549 ]

Gurobi 10.0.1 (mac64[arm]) logging started Sun Apr  7 14:38:06 2024

Set parameter LogFile to value "/Users/deniserings/Documents/zib/s-bahn-data/scripts/DeniseMA/processed/BBUP_W/Branching/BBUP_W_slack_subMBP202404071201.log"
Gurobi Optimizer version 10.0.1 build v10.0.1rc0 (mac64[arm])

CPU model: Apple M2
Thread count: 8 physical cores, 8 logical processors, using up to 8 threads

Optimize a model with 12165 rows, 5181 columns and 44770 nonzeros
Model fingerprint: 0xc1560116
Variable types: 2316 continuous, 2865 integer (59 binary)
Coefficient statistics:
  Matrix range     [1e+00, 2e+02]
  Objective range  [1e+00, 4e+02]
  Bounds range     [1e+00, 2e+02]
  RHS range        [1e+00, 5e+02]

Loaded user MIP start with objective 15083

Presolve removed 5529 rows and 1730 columns
Presolve time: 0.09s
Presolved: 6636 rows, 3451 columns, 25293 nonzeros
Variable types: 1113 continuous, 2338 integer (2338 binary)

Root relaxation: objective 1.268804e+04, 2373 iterations, 0.01 seconds (0.01 work units)

    Nodes    |    Current Node    |     Objective Bounds      |     Work
 Expl Unexpl |  Obj  Depth IntInf | Incumbent    BestBd   Gap | It/Node Time

     0     0 12688.0447    0  113 15083.0000 12688.0447  15.9%     -    0s
     0     0 12732.5812    0  376 15083.0000 12732.5812  15.6%     -    0s
     0     0 12734.0000    0  366 15083.0000 12734.0000  15.6%     -    0s
     0     0 12742.7723    0  415 15083.0000 12742.7723  15.5%     -    0s
     0     0 12743.2424    0  397 15083.0000 12743.2424  15.5%     -    0s
     0     0 12745.6960    0  308 15083.0000 12745.6960  15.5%     -    0s
     0     0 12745.6960    0  344 15083.0000 12745.6960  15.5%     -    0s
     0     0 12746.7467    0  324 15083.0000 12746.7467  15.5%     -    0s
     0     0 12746.8476    0  401 15083.0000 12746.8476  15.5%     -    0s
     0     0 12746.8476    0  411 15083.0000 12746.8476  15.5%     -    0s
     0     0 12746.8476    0  387 15083.0000 12746.8476  15.5%     -    0s
H    0     0                    15080.000000 12746.8476  15.5%     -    0s
     0     0 12746.8476    0  389 15080.0000 12746.8476  15.5%     -    0s
     0     0 12746.8476    0  366 15080.0000 12746.8476  15.5%     -    0s
     0     0 12746.8476    0  132 15080.0000 12746.8476  15.5%     -    0s
     0     2 12746.8476    0  107 15080.0000 12746.8476  15.5%     -    0s
H  109   120                    15076.999937 12768.0000  15.3%   101    1s
H  131   150                    15074.000000 12768.0000  15.3%  89.2    1s
H  170   218                    15073.999986 12768.0000  15.3%  77.9    1s
H  179   218                    15073.999961 12768.0000  15.3%  76.6    1s
H  215   218                    15070.000000 12768.0000  15.3%  73.7    1s
H  260   319                    15022.000000 12768.0000  15.0%  66.7    1s
H  384   477                    15004.000000 12768.0000  14.9%  55.4    1s
  2126  1589 12778.0000   41  191 15004.0000 12778.0000  14.8%  41.6    5s
H 2447  1440                    15003.999912 12778.0000  14.8%  40.4    5s
H 2449  1382                    15001.000000 12778.0000  14.8%  40.5    5s
H 4192  2052                    15000.000000 12778.0000  14.8%  32.8    6s
H 4197  2000                    14994.000000 12778.0000  14.8%  32.8    6s
H 4198  1952                    14989.000000 12778.0000  14.8%  32.8    6s
H 4250  1902                    14983.000000 12778.0000  14.7%  32.6    6s
H 4494  2092                    14982.999975 12778.0000  14.7%  32.7    7s
H 4515  2092                    14980.000000 12778.0000  14.7%  32.7    7s
H 4841  2560                    14976.000000 12778.0000  14.7%  32.7    7s
H 6937  3846                    14975.000000 12778.0000  14.7%  31.2    8s
H 6962  3840                    14966.000000 12778.0000  14.6%  31.2    8s
H 7246  4355                    14949.000000 12778.0000  14.5%  31.4    9s
H 7810  4353                    14941.000000 12778.0000  14.5%  30.8    9s
  8351  5731 13689.2652   43  215 14941.0000 12778.0000  14.5%  30.9   10s
H10256  5836                    14938.000000 12778.0000  14.5%  29.8   11s
 12836  7684 12784.0000   41  270 14938.0000 12778.0000  14.5%  33.4   15s
 17636 11306 infeasible   34      14938.0000 12778.0000  14.5%  36.3   20s
H20709 12853                    14937.999965 12778.0000  14.5%  37.8   22s
 23080 14398 infeasible  128      14938.0000 12778.0000  14.5%  38.0   25s
 27057 17225 13052.0000   29  282 14938.0000 12778.0000  14.5%  39.8   30s
 29537 18092 12874.4101   58  132 14938.0000 12778.0000  14.5%  40.9   41s
 29552 18102 12794.0000   35  171 14938.0000 12778.0000  14.5%  40.9   45s
H29554 17197                    14937.999960 12778.0000  14.5%  40.9   47s
H29555 16338                    14937.999952 12778.0000  14.5%  40.9   48s
H29555 15521                    14937.999919 12778.0000  14.5%  40.9   48s
 29558 15523 13606.0000   40  163 14937.9999 12778.0000  14.5%  40.9   50s
H30069 15036                    14937.997472 12778.0000  14.5%  42.5   53s
 30387 15176 13370.0000   71  163 14937.9975 12778.0000  14.5%  42.5   55s
 32085 15989 13188.7333   76  167 14937.9975 12778.0000  14.5%  43.5   60s
 34648 16843 12778.0000   42  339 14937.9975 12778.0000  14.5%  45.1   65s
 37581 17448 14883.6727  112   20 14937.9975 12778.0000  14.5%  47.8   70s
 39511 18308 13356.7212   53  260 14937.9975 12778.0000  14.5%  50.4   75s
 41276 18964 14416.0495   66  121 14937.9975 12778.0000  14.5%  52.4   80s
 43395 19369 13093.1295   55  371 14937.9975 12778.0000  14.5%  54.2   86s
 44127 20113 13055.4157   50  332 14937.9975 12778.0000  14.5%  55.3   91s
 46003 21168 14178.3340   69  138 14937.9975 12778.0000  14.5%  57.3   97s
 48392 21395 12824.1821   38  299 14937.9975 12778.0000  14.5%  59.2  102s
 49452 21843 12784.9333   49  212 14937.9975 12778.0000  14.5%  60.3  106s
 52077 22368 13007.0000   54  201 14937.9975 12778.0000  14.5%  62.1  112s
 53034 22770 14056.0000   48  211 14937.9975 12778.0000  14.5%  63.2  115s
 55359 24253 13636.6835   54  217 14937.9975 12778.0000  14.5%  64.8  121s
 58715 24359 12798.2636   43  426 14937.9975 12778.0000  14.5%  66.4  127s
 59874 24349 13003.7035   51  308 14937.9975 12778.0000  14.5%  66.9  130s
 61808 25387 12798.0000   50  363 14937.9975 12778.0000  14.5%  68.3  136s
 63911 25985 14841.0315   84   70 14937.9975 12778.0000  14.5%  69.6  143s
 65077 26385 12897.8331   43  337 14937.9975 12778.0000  14.5%  70.3  146s
 67391 27463 13176.0000   53  313 14937.9975 12778.0000  14.5%  71.2  152s
 69276 27182 infeasible   44      14937.9975 12778.0000  14.5%  71.6  155s
 70555 27721 14102.5730   69  106 14937.9975 12778.2111  14.5%  72.5  161s
 71923 28264 13045.9812   47  448 14937.9975 12780.0000  14.4%  73.6  167s
 72897 28303 13012.6376   51  353 14937.9975 12781.6879  14.4%  74.0  170s
 74273 29085 12788.3781   40  393 14937.9975 12783.1890  14.4%  74.4  177s
H74769 29082                    14933.000000 12783.1890  14.4%  74.5  177s
 75256 29831 13204.1422   63  271 14933.0000 12783.1890  14.4%  74.7  181s

Cutting planes:
  Learned: 30
  Gomory: 265
  Cover: 1337
  Implied bound: 278
  Projected implied bound: 16
  Clique: 144
  MIR: 305
  StrongCG: 91
  Flow cover: 1173
  GUB cover: 10
  Inf proof: 20
  Zero half: 13
  Network: 42
  RLT: 83
  Relax-and-lift: 95

Explored 76364 nodes (5736498 simplex iterations) in 181.15 seconds (264.50 work units)
Thread count was 8 (of 8 available processors)

Solution count 10: 14933 14938 14938 ... 14966

Solve interrupted
Best objective 1.493300000000e+04, best bound 1.278318904824e+04, gap 14.3964%

User-callback calls 223767, time in user-callback 0.57 sec

Statistics for modelBBUP_W:
  Linear constraint matrix    : 12165 Constrs, 5181 Vars, 44770 NZs
  Variable types              : 2316 Continuous,
2865 Integer (59 Binary)
  Matrix coefficient range    : [ 1, 200 ]
  Objective coefficient range : [ 1, 384 ]
  Variable bound range        : [ 1, 199 ]
  RHS coefficient range       : [ 1, 549 ]

Gurobi 10.0.1 (mac64[arm]) logging started Sun Apr  7 14:41:08 2024

Set parameter LogFile to value "/Users/deniserings/Documents/zib/s-bahn-data/scripts/DeniseMA/processed/BBUP_W/Branching/BBUP_W_slack_subMBP202404071201.log"
Gurobi Optimizer version 10.0.1 build v10.0.1rc0 (mac64[arm])

CPU model: Apple M2
Thread count: 8 physical cores, 8 logical processors, using up to 8 threads

Optimize a model with 12164 rows, 5181 columns and 44769 nonzeros
Model fingerprint: 0xce67c3e1
Variable types: 2316 continuous, 2865 integer (59 binary)
Coefficient statistics:
  Matrix range     [1e+00, 2e+02]
  Objective range  [1e+00, 4e+02]
  Bounds range     [1e+00, 2e+02]
  RHS range        [1e+00, 5e+02]

Loaded user MIP start with objective 15083

Presolve removed 5510 rows and 1720 columns
Presolve time: 0.11s
Presolved: 6654 rows, 3461 columns, 25416 nonzeros
Variable types: 1119 continuous, 2342 integer (2342 binary)

Root relaxation: objective 1.268804e+04, 2465 iterations, 0.02 seconds (0.01 work units)

    Nodes    |    Current Node    |     Objective Bounds      |     Work
 Expl Unexpl |  Obj  Depth IntInf | Incumbent    BestBd   Gap | It/Node Time

     0     0 12688.0447    0  131 15083.0000 12688.0447  15.9%     -    0s
     0     0 12732.4670    0  444 15083.0000 12732.4670  15.6%     -    0s
     0     0 12734.0000    0  429 15083.0000 12734.0000  15.6%     -    0s
     0     0 12750.7444    0  416 15083.0000 12750.7444  15.5%     -    0s
     0     0 12750.7444    0  348 15083.0000 12750.7444  15.5%     -    0s
     0     0 12760.3848    0  534 15083.0000 12760.3848  15.4%     -    0s
     0     0 12760.3848    0  529 15083.0000 12760.3848  15.4%     -    0s
     0     0 12760.3848    0  532 15083.0000 12760.3848  15.4%     -    0s
     0     0 12760.3848    0  516 15083.0000 12760.3848  15.4%     -    0s
     0     0 12760.3848    0  117 15083.0000 12760.3848  15.4%     -    0s
     0     0 12760.3848    0  238 15083.0000 12760.3848  15.4%     -    0s
H    0     0                    15082.999946 12760.3848  15.4%     -    1s
     0     0 12760.3848    0  111 15082.9999 12760.3848  15.4%     -    1s
     0     0 12760.3848    0  129 15082.9999 12760.3848  15.4%     -    1s
     0     0 12760.4181    0  122 15082.9999 12760.4181  15.4%     -    1s
     0     0 12760.4181    0  121 15082.9999 12760.4181  15.4%     -    1s
     0     0 12760.4181    0  122 15082.9999 12760.4181  15.4%     -    1s
     0     0 12760.4181    0  265 15082.9999 12760.4181  15.4%     -    1s
     0     0 12760.4181    0  255 15082.9999 12760.4181  15.4%     -    1s
     0     0 12760.4181    0  252 15082.9999 12760.4181  15.4%     -    1s
     0     0 12760.4181    0  275 15082.9999 12760.4181  15.4%     -    1s
     0     0 12762.0116    0  363 15082.9999 12762.0116  15.4%     -    1s
     0     0 12762.0116    0  347 15082.9999 12762.0116  15.4%     -    1s
     0     0 12762.0173    0  312 15082.9999 12762.0173  15.4%     -    2s
     0     0 12762.3605    0  372 15082.9999 12762.3605  15.4%     -    2s
     0     0 12762.3605    0  333 15082.9999 12762.3605  15.4%     -    2s
     0     0 12762.3605    0  339 15082.9999 12762.3605  15.4%     -    2s
     0     0 12762.3605    0  304 15082.9999 12762.3605  15.4%     -    2s
     0     0 12762.3605    0  311 15082.9999 12762.3605  15.4%     -    2s
H    0     0                    15081.000000 12762.3605  15.4%     -    2s
     0     0 12762.3605    0  303 15081.0000 12762.3605  15.4%     -    2s
     0     0 12762.3605    0  123 15081.0000 12762.3605  15.4%     -    2s
     0     0 12762.3605    0  177 15081.0000 12762.3605  15.4%     -    2s
     0     0 12762.3605    0   95 15081.0000 12762.3605  15.4%     -    2s
     0     0 12762.3605    0   90 15081.0000 12762.3605  15.4%     -    2s
     0     0 12762.3605    0  133 15081.0000 12762.3605  15.4%     -    3s
     0     0 12762.3605    0  169 15081.0000 12762.3605  15.4%     -    3s
     0     0 12762.3605    0  151 15081.0000 12762.3605  15.4%     -    3s
     0     0 12762.3605    0  118 15081.0000 12762.3605  15.4%     -    3s
     0     2 12762.3605    0  118 15081.0000 12762.3605  15.4%     -    3s
H  114   114                    15080.999969 12771.6974  15.3%   112    3s
H  123   114                    15069.999970 12771.6974  15.3%   106    3s
H  164   159                    15056.000000 12771.6974  15.2%  90.0    3s
H  166   159                    15052.000000 12771.6974  15.1%  90.0    3s
H  200   174                    15021.000000 12771.6974  15.0%  80.6    4s
H  213   174                    15016.000000 12771.6974  14.9%  77.9    4s
   954   765 12935.0000   14  281 15016.0000 12771.6974  14.9%  43.2    5s
H 1239   987                    15004.000000 12771.6974  14.9%  39.8    5s
H 1570  1226                    14994.000000 12771.6974  14.8%  36.9    5s
  1600  1249 12778.0000   10  118 14994.0000 12778.0000  14.8%  51.3   10s
H 1780  1274                    14982.000000 12778.0000  14.7%  50.8   11s
H 1868  1261                    14981.999919 12778.0000  14.7%  52.8   11s
H 2004  1250                    14981.999887 12778.0000  14.7%  52.2   12s
H 2033  1253                    14976.000000 12778.0000  14.7%  52.2   12s
H 2143  1244                    14971.000000 12778.0000  14.6%  51.3   12s
H 2171  1186                    14969.000000 12778.0000  14.6%  51.4   12s
H 2381  1347                    14967.000000 12778.0000  14.6%  49.8   13s
H 2629  1225                    14957.000000 12778.0000  14.6%  47.4   14s
H 2635  1181                    14955.000000 12778.0000  14.6%  47.6   14s
  3155  1508 12778.0000   21  190 14955.0000 12778.0000  14.6%  45.8   15s
H 5457  3090                    14941.000000 12778.0000  14.5%  44.0   18s
  6370  3551 14497.3684   66  125 14941.0000 12778.0000  14.5%  44.7   20s
H 6620  3551                    14938.000000 12778.0000  14.5%  44.6   20s
  9513  5446 infeasible   58      14938.0000 12778.0000  14.5%  43.8   25s
H10443  6080                    14937.999985 12778.0000  14.5%  45.9   28s
H10589  6080                    14937.999959 12778.0000  14.5%  46.3   28s
 11509  6987 12800.0000   38  229 14938.0000 12778.0000  14.5%  47.5   31s
H13012  7736                    14932.999966 12778.0000  14.4%  48.4   33s
 13221  8014 12778.0000   25  257 14933.0000 12778.0000  14.4%  49.6   35s
H15811 10569                    14932.999935 12778.0000  14.4%  50.4   43s
H17434 10569                    14932.999915 12778.0000  14.4%  51.8   43s
 17581 12587 14721.0000   89   29 14932.9999 12778.0000  14.4%  52.2   46s
H20872 12868                    14932.999908 12778.0000  14.4%  52.0   48s
H20988 12868                    14932.999852 12778.0000  14.4%  52.3   48s
 21248 13268 13351.0000   48  200 14932.9999 12778.0000  14.4%  52.7   50s
H22355 13787                    14932.999849 12778.0000  14.4%  54.7   53s
 22658 14429 infeasible   63      14932.9998 12778.0000  14.4%  54.9   55s
 25504 15855 13001.0000   24  291 14932.9998 12778.0000  14.4%  56.1   61s
H26028 15855                    14932.999843 12778.0000  14.4%  57.1   61s
 27093 17438 12778.0000   27  389 14932.9998 12778.0000  14.4%  57.9   67s
 29758 18596 13958.0560   58  123 14932.9998 12778.0000  14.4%  59.0   72s
 30625 18597 13503.0000   34  121 14932.9998 12778.0000  14.4%  59.1   86s
 30635 18604 13920.0727   38  215 14932.9998 12778.0000  14.4%  59.1   90s
 30869 18759 12802.0000   39  204 14932.9998 12778.0000  14.4%  59.8   95s
 32289 19402 13072.8610   44  241 14932.9998 12778.0000  14.4%  59.4  100s
 33637 19928 12886.0798   48  296 14932.9998 12778.0000  14.4%  59.3  105s
 35537 20808 14645.0105   72   90 14932.9998 12778.0000  14.4%  60.5  110s
 36795 21049 14111.5042   59  156 14932.9998 12778.0000  14.4%  61.9  115s
 38482 21718 12778.0000   39  308 14932.9998 12778.0000  14.4%  64.2  120s
H38601 20747                    14932.999779 12778.0000  14.4%  64.2  120s
 39309 21180 12806.0000   32  265 14932.9998 12778.0000  14.4%  64.9  125s
 40547 21512 12898.0000   42  268 14932.9998 12778.0000  14.4%  66.3  130s
 42713 22169 13558.4682   59  154 14932.9998 12778.0000  14.4%  67.8  135s
 43884 22958 12778.0000   36  341 14932.9998 12778.0000  14.4%  68.8  140s
 45433 23221 12850.1420   42  344 14932.9998 12778.0000  14.4%  70.0  145s
 47004 24599 13592.2337   53  138 14932.9998 12778.0000  14.4%  71.6  152s
 49464 24806     cutoff  118      14932.9998 12778.0000  14.4%  72.4  158s
 50362 25036 13261.7977   46  284 14932.9998 12778.0000  14.4%  73.1  161s
 52335 25833 13817.6177   35  234 14932.9998 12778.0000  14.4%  74.7  168s
 53228 26086 13554.0000   74   78 14932.9998 12778.0000  14.4%  75.5  171s
 55521 26971 12878.8997   37  300 14932.9998 12778.0000  14.4%  76.7  178s
 56511 27484 13076.7940   38  224 14932.9998 12778.0000  14.4%  77.4  182s

Cutting planes:
  Learned: 35
  Gomory: 229
  Cover: 961
  Implied bound: 118
  Projected implied bound: 13
  Clique: 103
  MIR: 207
  StrongCG: 113
  Flow cover: 1028
  GUB cover: 6
  Inf proof: 14
  Zero half: 10
  Network: 28
  RLT: 46
  Relax-and-lift: 78

Explored 57721 nodes (4524384 simplex iterations) in 182.73 seconds (197.98 work units)
Thread count was 8 (of 8 available processors)

Solution count 10: 14933 14933 14933 ... 14938

Solve interrupted
Best objective 1.493299977906e+04, best bound 1.277800000000e+04, gap 14.4311%

User-callback calls 181077, time in user-callback 0.60 sec

Statistics for modelBBUP_W:
  Linear constraint matrix    : 12164 Constrs, 5181 Vars, 44769 NZs
  Variable types              : 2316 Continuous,
2865 Integer (59 Binary)
  Matrix coefficient range    : [ 1, 200 ]
  Objective coefficient range : [ 1, 384 ]
  Variable bound range        : [ 1, 199 ]
  RHS coefficient range       : [ 1, 549 ]
